Instance name: /home/cuong/CLionProjects/uMV-FSTSP/50_dis_rand_ins/v99
Write arg val: 1

drone speed: 1 miles/minute
uav non-eligible customer: 5 6 11 
Printing tau:
0 15.7306 31.2213 34.9903 26.0953 30.3459 45.9026 53.4499 63.2908 86.3467 95.3678 0 
15.7306 0 46.7235 50.7209 41.5975 45.8481 61.4047 53.2121 56.227 101.849 110.87 15.7306 
31.2213 46.7235 0 8.60559 28.897 20.8269 19.8165 79.8346 89.6755 55.1254 64.1465 31.2213 
34.9903 50.7209 8.60559 0 37.5026 29.4325 28.4221 88.4402 98.2811 58.0126 67.0337 34.9903 
26.0953 41.5975 28.897 37.5026 0 8.07008 19.8072 50.9376 60.7786 60.2514 69.2725 26.0953 
30.3459 45.8481 20.8269 29.4325 8.07008 0 15.5566 59.0077 68.8487 56.0008 65.0219 30.3459 
45.9026 61.4047 19.8165 28.4221 19.8072 15.5566 0 60.0181 69.8591 40.4442 49.4652 45.9026 
53.4499 53.2121 79.8346 88.4402 50.9376 59.0077 60.0181 0 9.84095 48.6368 57.6579 53.4499 
63.2908 56.227 89.6755 98.2811 60.7786 68.8487 69.8591 9.84095 0 51.4718 61.3117 63.2908 
86.3467 101.849 55.1254 58.0126 60.2514 56.0008 40.4442 48.6368 51.4718 0 9.83996 86.3467 
95.3678 110.87 64.1465 67.0337 69.2725 65.0219 49.4652 57.6579 61.3117 9.83996 0 95.3678 
0 0 0 0 0 0 0 0 0 0 0 0 
Printing tau_prime:
0 5.85631 10.8391 11.9387 6.95156 8.18053 12.2957 17.3454 19.9566 23.1096 25.2936 0 
5.85631 0 16.6797 17.7764 11.5737 13.4039 17.3228 17.2953 19.5278 27.0267 29.6241 5.85631 
10.8391 16.6797 0 2.40691 7.78209 5.52744 6.53959 21.2391 23.912 17.7845 18.598 10.8391 
11.9387 17.7764 2.40691 0 9.96207 7.82267 8.8601 23.5827 26.267 19.7661 20.299 11.9387 
6.95156 11.5737 7.78209 9.96207 0 2.41859 5.77781 13.8536 16.5767 16.166 18.3692 6.95156 
8.18053 13.4039 5.52744 7.82267 2.41859 0 4.13377 15.7682 18.4625 15.5479 17.357 8.18053 
12.2957 17.3228 6.53959 8.8601 5.77781 4.13377 0 16.0623 18.575 11.7807 13.3108 12.2957 
17.3454 17.2953 21.2391 23.5827 13.8536 15.7682 16.0623 0 2.72919 16.9761 20.4945 17.3454 
19.9566 19.5278 23.912 26.267 16.5767 18.4625 18.575 2.72919 0 18.2381 21.7774 19.9566 
23.1096 27.0267 17.7845 19.7661 16.166 15.5479 11.7807 16.9761 18.2381 0 3.53977 23.1096 
25.2936 29.6241 18.598 20.299 18.3692 17.357 13.3108 20.4945 21.7774 3.53977 0 25.2936 
0 0 0 0 0 0 0 0 0 0 0 0 
Version identifier: 22.1.1.0 | 2022-11-28 | 9160aff4d
CPXPARAM_MIP_Tolerances_Integrality              0
Tried aggregator 1 time.
MIP Presolve eliminated 1 rows and 12 columns.
MIP Presolve modified 20 coefficients.
Reduced MIP has 122 rows, 120 columns, and 510 nonzeros.
Reduced MIP has 110 binaries, 0 generals, 0 SOSs, and 0 indicators.
Presolve time = 0.00 sec. (0.27 ticks)
Found incumbent of value 570.458600 after 0.00 sec. (0.75 ticks)
Probing time = 0.00 sec. (0.26 ticks)
Cover probing fixed 0 vars, tightened 10 bounds.
Tried aggregator 1 time.
Detecting symmetries...
MIP Presolve eliminated 10 rows and 0 columns.
MIP Presolve modified 180 coefficients.
Reduced MIP has 112 rows, 120 columns, and 490 nonzeros.
Reduced MIP has 110 binaries, 0 generals, 0 SOSs, and 0 indicators.
Presolve time = 0.00 sec. (0.35 ticks)
Probing time = 0.00 sec. (0.26 ticks)
Clique table members: 67.
MIP emphasis: balance optimality and feasibility.
MIP search method: dynamic search.
Parallel mode: deterministic, using up to 20 threads.
Root relaxation solution time = 0.00 sec. (0.18 ticks)

        Nodes                                         Cuts/
   Node  Left     Objective  IInf  Best Integer    Best Bound    ItCnt     Gap

*     0+    0                          570.4586        0.0000           100.00%
      0     0      151.8257    20      570.4586      151.8257       19   73.39%
*     0+    0                          301.2436      151.8257            49.60%
      0     0      246.0037    19      301.2436      Cuts: 23       41   18.34%
      0     0      246.0037    18      301.2436      Cuts: 36       58   18.34%
      0     0      246.0037    14      301.2436    MIRcuts: 3       61   18.34%
*     0+    0                          281.5806      246.0037            12.63%
      0     0      246.0037    14      281.5806      Cuts: 15       65   12.63%
      0     0        cutoff            281.5806      281.5806       65    0.00%
Elapsed time = 0.02 sec. (8.55 ticks, tree = 0.01 MB, solutions = 3)

Clique cuts applied:  4
Implied bound cuts applied:  3
Mixed integer rounding cuts applied:  5
Zero-half cuts applied:  1
Gomory fractional cuts applied:  2

Root node processing (before b&c):
  Real time             =    0.02 sec. (8.56 ticks)
Parallel b&c, 20 threads:
  Real time             =    0.00 sec. (0.00 ticks)
  Sync time (average)   =    0.00 sec.
  Wait time (average)   =    0.00 sec.
                          ------------
Total (root+branch&cut) =    0.02 sec. (8.56 ticks)

TSP solution for this instance: 0 1 7 8 9 10 6 2 3 5 4 11 
12
Warmstart X[1][0] == 1
Warmstart X[2][1] == 1
Warmstart X[3][7] == 1
Warmstart X[4][8] == 1
Warmstart X[5][9] == 1
Warmstart X[6][10] == 1
Warmstart X[7][6] == 1
Warmstart X[8][2] == 1
Warmstart X[9][3] == 1
Warmstart X[10][5] == 1
Warmstart X[11][4] == 1
---------------------------------------------
Calculate max stage gap for sortie.... 
Stage gap of 3 with smallest length = 24.2102 violated endurance constraint!
---------------------------------------------
Variable z[1][4] was set to 0.
Variable z[1][5] was set to 0.
Variable z[1][6] was set to 0.
Variable z[1][7] was set to 0.
Variable z[1][8] was set to 0.
Variable z[1][9] was set to 0.
Variable z[1][10] was set to 0.
Variable z[1][11] was set to 0.
Variable z[1][12] was set to 0.
Variable z[2][5] was set to 0.
Variable z[2][6] was set to 0.
Variable z[2][7] was set to 0.
Variable z[2][8] was set to 0.
Variable z[2][9] was set to 0.
Variable z[2][10] was set to 0.
Variable z[2][11] was set to 0.
Variable z[2][12] was set to 0.
Variable z[3][6] was set to 0.
Variable z[3][7] was set to 0.
Variable z[3][8] was set to 0.
Variable z[3][9] was set to 0.
Variable z[3][10] was set to 0.
Variable z[3][11] was set to 0.
Variable z[3][12] was set to 0.
Variable z[4][7] was set to 0.
Variable z[4][8] was set to 0.
Variable z[4][9] was set to 0.
Variable z[4][10] was set to 0.
Variable z[4][11] was set to 0.
Variable z[4][12] was set to 0.
Variable z[5][8] was set to 0.
Variable z[5][9] was set to 0.
Variable z[5][10] was set to 0.
Variable z[5][11] was set to 0.
Variable z[5][12] was set to 0.
Variable z[6][9] was set to 0.
Variable z[6][10] was set to 0.
Variable z[6][11] was set to 0.
Variable z[6][12] was set to 0.
Variable z[7][10] was set to 0.
Variable z[7][11] was set to 0.
Variable z[7][12] was set to 0.
Variable z[8][11] was set to 0.
Variable z[8][12] was set to 0.
Variable z[9][12] was set to 0.
Num constraint added = 4752
Warning:  Output names have been modified due to duplicate names or characters invalid in LP format.
Version identifier: 22.1.1.0 | 2022-11-28 | 9160aff4d
CPXPARAM_TimeLimit                               200
CPXPARAM_MIP_Tolerances_Integrality              0
1 of 1 MIP starts provided solutions.
MIP start 'm1' defined initial solution with objective 281.5806.
Tried aggregator 2 times.
MIP Presolve eliminated 6736 rows and 2740 columns.
MIP Presolve modified 1715 coefficients.
Aggregator did 39 substitutions.
Reduced MIP has 1039 rows, 1997 columns, and 31805 nonzeros.
Reduced MIP has 1976 binaries, 0 generals, 0 SOSs, and 0 indicators.
Presolve time = 0.08 sec. (191.11 ticks)
Probing fixed 254 vars, tightened 0 bounds.
Probing changed sense of 15 constraints.
Probing time = 0.03 sec. (62.34 ticks)
Tried aggregator 2 times.
MIP Presolve eliminated 38 rows and 256 columns.
MIP Presolve modified 49 coefficients.
Aggregator did 20 substitutions.
Reduced MIP has 981 rows, 1721 columns, and 25387 nonzeros.
Reduced MIP has 1700 binaries, 0 generals, 0 SOSs, and 0 indicators.
Presolve time = 0.02 sec. (44.08 ticks)
Probing time = 0.00 sec. (4.64 ticks)
Tried aggregator 1 time.
Detecting symmetries...
Reduced MIP has 981 rows, 1721 columns, and 25387 nonzeros.
Reduced MIP has 1700 binaries, 0 generals, 0 SOSs, and 0 indicators.
Presolve time = 0.01 sec. (23.07 ticks)
Probing time = 0.00 sec. (4.65 ticks)
Clique table members: 8732.
MIP emphasis: balance optimality and feasibility.
MIP search method: dynamic search.
Parallel mode: deterministic, using up to 20 threads.
Root relaxation solution time = 0.08 sec. (160.30 ticks)

        Nodes                                         Cuts/
   Node  Left     Objective  IInf  Best Integer    Best Bound    ItCnt     Gap

*     0+    0                          281.5806       15.7306            94.41%
      0     0      149.3822   237      281.5806      149.3822     2130   46.95%
      0     0      175.0293   224      281.5806      Cuts: 49     2585   37.84%
      0     0      176.0568   253      281.5806      Cuts: 28     2669   37.48%
      0     0      176.5462   263      281.5806  ZeroHalf: 15     2834   37.30%
      0     0      178.4030   231      281.5806      Cuts: 15     3042   36.64%
      0     0      179.3433   269      281.5806      Cuts: 12     3269   36.31%
Detecting symmetries...
      0     0      179.9937   248      281.5806       Cuts: 4     3435   36.08%
      0     0      180.5851   259      281.5806   ZeroHalf: 5     3530   35.87%
      0     0      181.1035   259      281.5806       Cuts: 5     3660   35.68%
      0     0      182.2573   267      281.5806  ZeroHalf: 12     3849   35.27%
      0     0      182.7985   249      281.5806   ZeroHalf: 6     3987   35.08%
      0     0      182.8765   280      281.5806   ZeroHalf: 3     4045   35.05%
      0     0      183.4538   272      281.5806   ZeroHalf: 7     4223   34.85%
      0     0      183.5780   274      281.5806   ZeroHalf: 2     4276   34.80%
*     0+    0                          249.8281      183.5780            26.52%
      0     0      183.7938   254      249.8281   ZeroHalf: 2     4347   26.43%
      0     0      186.0452   248      249.8281       Cuts: 9     4628   25.53%
      0     0      186.7577   282      249.8281       Cuts: 5     4833   25.25%
      0     0      187.1672   274      249.8281       Cuts: 3     5041   25.08%
Detecting symmetries...
      0     2      187.1681   279      249.8281      190.7042     5050   23.67%
Elapsed time = 1.05 sec. (1792.88 ticks, tree = 0.02 MB, solutions = 2)
    122     8      225.1148   171      249.8281      190.7042    14166   23.67%
*   487     6      integral     0      249.6482      195.9126    40745   21.52%
    489     8      224.1852   154      249.6482      195.9126    40301   21.52%
    616    12      231.7994   148      249.6482      210.7323    52403   15.59%

GUB cover cuts applied:  2
Clique cuts applied:  1
Cover cuts applied:  13
Implied bound cuts applied:  16
Mixed integer rounding cuts applied:  1
Zero-half cuts applied:  27
Lift and project cuts applied:  4
Gomory fractional cuts applied:  2

Root node processing (before b&c):
  Real time             =    1.03 sec. (1766.78 ticks)
Parallel b&c, 20 threads:
  Real time             =    0.82 sec. (972.11 ticks)
  Sync time (average)   =    0.60 sec.
  Wait time (average)   =    0.00 sec.
                          ------------
Total (root+branch&cut) =    1.84 sec. (2738.89 ticks)
Feasible solution found!
Truck nodes:
Stage 1 at customer 0 with arrival time is: 0
Stage 1 at customer 0 with departure time is: 0
Stage 2 at customer 4 with arrival time is: 26.0953
Stage 2 at customer 4 with departure time is: 27.0953
Stage 3 at customer 5 with arrival time is: 35.1654
Stage 3 at customer 5 with departure time is: 42.4048
Stage 4 at customer 6 with arrival time is: 57.9614
Stage 4 at customer 6 with departure time is: 60.0876
Stage 5 at customer 10 with arrival time is: 109.553
Stage 5 at customer 10 with departure time is: 109.553
Stage 6 at customer 9 with arrival time is: 119.393
Stage 6 at customer 9 with departure time is: 119.393
Stage 7 at customer 8 with arrival time is: 170.865
Stage 7 at customer 8 with departure time is: 170.865
Stage 8 at customer 7 with arrival time is: 180.706
Stage 8 at customer 7 with departure time is: 180.706
Stage 9 at customer 1 with arrival time is: 233.918
Stage 9 at customer 1 with departure time is: 233.918
Stage 10 at customer 11 with arrival time is: 249.648
Stage 10 at customer 11 with departure time is: 249.648
Truck arcs:
Arc 1 connecting 0 and 4 with cost 26.0953 
Arc 2 connecting 4 and 5 with cost 8.07008 
Arc 3 connecting 5 and 6 with cost 15.5566 
Arc 4 connecting 6 and 10 with cost 49.4652 
Arc 5 connecting 10 and 9 with cost 9.83996 
Arc 6 connecting 9 and 8 with cost 51.4718 
Arc 7 connecting 8 and 7 with cost 9.84095 
Arc 8 connecting 7 and 1 with cost 53.2121 
Arc 9 connecting 1 and 11 with cost 15.7306 
Customer 2 served by drone.
Drone fly from 4 at stage 2 to serve 2 and then fly back to 5 at stage 3. 
Truck arcs during this sortie: 4--->5
Truck travel time from stage 2 to 3 is: 8.07008
Total drone travel time: 13.3095
Drone arrival time: 40.4048
Truck arrival time: 35.1654
Truck departure time = max(d/a, t/a) plus (sl/sr): 42.4048
Customer 3 served by drone.
Drone fly from 5 at stage 3 to serve 3 and then fly back to 6 at stage 4. 
Truck arcs during this sortie: 5--->6
Truck travel time from stage 3 to 4 is: 15.5566
Total drone travel time: 16.6828
Drone arrival time: 59.0876
Truck arrival time: 57.9614
Truck departure time = max(d/a, t/a) plus (sl/sr): 60.0876
Done!
-------------------------Re-calculated objective-----------------------
249.648
------------------------------------------------------------------------
Solve time: 1.845
OBJECTIVE VALUE: 249.648, NUMBER OF SORTIES: 2.
Number of revisit: 0
In write mode
